c A SAT instance generated from a 3-CNF formula that had 15 clauses and 5 variables
p cnf 5 15
5 -1 -3 0
-5 4 -2 0
-3 -4 -2 0
3 4 1 0
4 1 -3 0
2 -4 5 0
-5 -4 -1 0
-3 2 5 0
3 -1 2 0
-3 -4 -5 0
3 2 1 0
-2 5 -3 0
-1 -4 -2 0
2 1 4 0
-2 -5 -1 0
